; benchmark generated from python API
(set-info :status unknown)
(declare-fun DISJ_W_S2_R_S1 () Bool)
(declare-fun W_S2_V3 () Bool)
(declare-fun W_S1_V5 () Bool)
(declare-fun R_S2_V4 () Bool)
(declare-fun W_S2_V2 () Bool)
(declare-fun R_S2_V5 () Bool)
(declare-fun R_S2_V1 () Bool)
(declare-fun W_S1_V4 () Bool)
(declare-fun W_S2_V5 () Bool)
(declare-fun DISJ_W_S1_W_S2 () Bool)
(declare-fun R_S2_V3 () Bool)
(declare-fun W_S2_V1 () Bool)
(declare-fun DISJ_W_S1_R_S2 () Bool)
(declare-fun DISJ_W_S2_R_S2 () Bool)
(declare-fun R_E1_V4 () Bool)
(declare-fun R_E1_V5 () Bool)
(declare-fun R_S2_V2 () Bool)
(declare-fun R_S1_V4 () Bool)
(declare-fun R_S1_V5 () Bool)
(declare-fun R_S1_V2 () Bool)
(declare-fun R_S1_V3 () Bool)
(declare-fun R_S1_V1 () Bool)
(declare-fun R_E1_V2 () Bool)
(declare-fun DISJ_W_S2_R_E1 () Bool)
(declare-fun R_E1_V3 () Bool)
(declare-fun DISJ_W_S1_R_S1 () Bool)
(declare-fun W_S2_V4 () Bool)
(declare-fun W_S1_V3 () Bool)
(declare-fun W_S1_V2 () Bool)
(declare-fun W_S1_V1 () Bool)
(declare-fun R_E1_V1 () Bool)
(declare-fun DISJ_W_S1_R_E1 () Bool)
(assert
 (let (($x988 (not (and (not R_S2_V4) (not W_S1_V5) (not W_S2_V3) DISJ_W_S2_R_S1))))
 (let (($x986 (not W_S2_V3)))
 (let (($x4262 (not W_S2_V2)))
 (let (($x2519 (not R_S2_V5)))
 (let (($x1607 (not R_S2_V1)))
 (let (($x3980 (not (and $x1607 $x2519 $x4262 $x986 DISJ_W_S2_R_S1))))
 (let (($x305 (not (and $x2519 (not W_S1_V4) $x986 DISJ_W_S2_R_S1))))
 (let (($x3129 (not (and $x1607 $x4262 (not W_S2_V5) $x986 DISJ_W_S2_R_S1))))
 (let (($x5938 (not (and DISJ_W_S1_W_S2 DISJ_W_S2_R_S1))))
 (let (($x1813 (not (and $x1607 (not R_S2_V3) $x2519 $x4262 DISJ_W_S2_R_S1))))
 (let (($x5001 (not (and $x1607 (not R_S2_V3) (not R_S2_V4) $x4262 DISJ_W_S2_R_S1))))
 (let (($x648 (not (and $x1607 (not R_S2_V4) $x4262 (not W_S2_V5) DISJ_W_S2_R_S1))))
 (let (($x5759 (not (and $x1607 $x2519 (not R_S2_V4) $x4262 DISJ_W_S2_R_S1))))
 (let (($x5838 (not (and $x1607 (not R_S2_V3) $x4262 (not W_S2_V5) DISJ_W_S2_R_S1))))
 (let (($x1744 (not W_S2_V1)))
 (let (($x1951 (and $x1744 $x4262)))
 (let (($x1776 (not $x1951)))
 (let (($x6057 (not (and (not R_S2_V3) (not R_S2_V4) (not W_S2_V5) DISJ_W_S2_R_S1))))
 (let (($x2047 (not (and (not R_S2_V4) (not W_S2_V5) $x986 DISJ_W_S2_R_S1))))
 (let (($x5077 (not (and (not R_S2_V3) (not W_S1_V4) (not W_S2_V5) DISJ_W_S2_R_S1))))
 (let (($x3976 (not (and DISJ_W_S1_R_S2 DISJ_W_S2_R_S1))))
 (let (($x2625 (not (and $x4262 DISJ_W_S2_R_S2))))
 (let (($x625 (not (and DISJ_W_S2_R_S1 DISJ_W_S2_R_S2))))
 (let (($x2202 (not (and W_S1_V4 R_E1_V4))))
 (let (($x2388 (not (and W_S1_V5 R_E1_V5))))
 (let (($x3824 (forall ((V3_0 Int) )(forall ((V2_0 Int) )(forall ((V5_0 Int) )(forall ((V4_0 Int) )(forall ((MW_S1_V1 Bool) )(forall ((MW_S1_V3 Bool) )(forall ((MW_S1_V2 Bool) )(forall ((MW_S1_V5 Bool) )(forall ((MW_S1_V4 Bool) )(forall ((MW_S2_V1 Bool) )(forall ((MW_S2_V3 Bool) )(forall ((MW_S2_V2 Bool) )(forall ((MW_S2_V5 Bool) )(forall ((MW_S2_V4 Bool) )(forall ((S1_V1_!2447 Int) )(forall ((S1_V1_!2464 Int) )(forall ((S1_V1_!2474 Int) )(forall ((S2_V5_!2456 Int) )(forall ((S2_V5_!2461 Int) )(forall ((S2_V5_!2472 Int) )(forall ((S2_V5_!2482 Int) )(forall ((S1_V3_!2448 Int) )(forall ((S1_V3_!2465 Int) )(forall ((S1_V3_!2475 Int) )(forall ((S1_V2_!2449 Int) )(forall ((S1_V2_!2466 Int) )(forall ((S1_V2_!2476 Int) )(forall ((E1_!2446 Int) )(forall ((E1_!2452 Int) )(forall ((E1_!2463 Int) )(forall ((S2_V4_!2457 Int) )(forall ((S2_V4_!2462 Int) )(forall ((S2_V4_!2473 Int) )(forall ((S2_V4_!2483 Int) )(forall ((S1_V5_!2450 Int) )(forall ((S1_V5_!2467 Int) )(forall ((S1_V5_!2477 Int) )(forall ((S2_V1_!2453 Int) )(forall ((S2_V1_!2458 Int) )(forall ((S2_V1_!2469 Int) )(forall ((S2_V1_!2479 Int) )(forall ((S1_V4_!2451 Int) )(forall ((S1_V4_!2468 Int) )(forall ((S1_V4_!2478 Int) )(forall ((S2_V2_!2455 Int) )(forall ((S2_V2_!2460 Int) )(forall ((S2_V2_!2471 Int) )(forall ((S2_V2_!2481 Int) )(forall ((S2_V3_!2454 Int) )(forall ((S2_V3_!2459 Int) )(forall ((S2_V3_!2470 Int) )(forall ((S2_V3_!2480 Int) )(let (($x3759 (= (ite MW_S2_V4 S2_V4_!2462 (ite MW_S1_V4 S1_V4_!2451 V4_0)) (ite MW_S2_V4 S2_V4_!2483 (ite MW_S1_V4 S1_V4_!2478 (ite MW_S2_V4 S2_V4_!2473 (ite MW_S1_V4 S1_V4_!2468 V4_0)))))))
 (let (($x741 (= (ite MW_S2_V5 S2_V5_!2461 (ite MW_S1_V5 S1_V5_!2450 V5_0)) (ite MW_S2_V5 S2_V5_!2482 (ite MW_S1_V5 S1_V5_!2477 (ite MW_S2_V5 S2_V5_!2472 (ite MW_S1_V5 S1_V5_!2467 V5_0)))))))
 (let ((?x286 (ite MW_S1_V2 S1_V2_!2466 V2_0)))
 (let ((?x5705 (ite MW_S2_V2 S2_V2_!2471 ?x286)))
 (let ((?x6016 (ite MW_S1_V2 S1_V2_!2476 ?x5705)))
 (let ((?x3873 (ite MW_S2_V2 S2_V2_!2481 ?x6016)))
 (let ((?x769 (ite MW_S1_V2 S1_V2_!2449 V2_0)))
 (let ((?x2868 (ite MW_S2_V2 S2_V2_!2460 ?x769)))
 (let (($x477 (= (ite MW_S2_V3 S2_V3_!2459 (ite MW_S1_V3 S1_V3_!2448 V3_0)) (ite MW_S2_V3 S2_V3_!2480 (ite MW_S1_V3 S1_V3_!2475 (ite MW_S2_V3 S2_V3_!2470 (ite MW_S1_V3 S1_V3_!2465 V3_0)))))))
 (let ((?x2223 (ite MW_S1_V1 S1_V1_!2464 E1_!2463)))
 (let ((?x1568 (ite MW_S2_V1 S2_V1_!2469 ?x2223)))
 (let ((?x144 (+ 1 ?x1568)))
 (let ((?x1962 (ite MW_S1_V1 S1_V1_!2474 ?x144)))
 (let ((?x2955 (ite MW_S2_V1 S2_V1_!2479 ?x1962)))
 (let ((?x1708 (ite MW_S2_V1 S2_V1_!2453 E1_!2452)))
 (let ((?x4088 (+ 1 ?x1708)))
 (let ((?x5443 (ite MW_S2_V1 S2_V1_!2458 ?x4088)))
 (let (($x2592 (and (not (<= V2_0 E1_!2446)) (>= (ite MW_S1_V1 S1_V1_!2447 E1_!2446) (+ (- 1) ?x769)) (not (<= ?x769 E1_!2452)) (not (<= (ite MW_S2_V2 S2_V2_!2455 ?x769) ?x4088)) (>= ?x5443 (+ (- 1) ?x2868)) (not (<= V2_0 E1_!2463)) (not (<= ?x5705 ?x144)) (>= ?x2955 (+ (- 1) ?x3873)))))
 (let (($x126 (= S2_V3_!2480 S2_V3_!2470)))
 (let ((?x3149 (ite MW_S1_V4 S1_V4_!2468 V4_0)))
 (let ((?x6067 (ite MW_S2_V4 S2_V4_!2473 ?x3149)))
 (let ((?x1844 (ite MW_S1_V4 S1_V4_!2478 ?x6067)))
 (let (($x3726 (not R_S2_V4)))
 (let ((?x1000 (ite MW_S1_V5 S1_V5_!2467 V5_0)))
 (let ((?x2376 (ite MW_S2_V5 S2_V5_!2472 ?x1000)))
 (let ((?x5071 (ite MW_S1_V5 S1_V5_!2477 ?x2376)))
 (let (($x2519 (not R_S2_V5)))
 (let ((?x2271 (ite MW_S1_V3 S1_V3_!2465 V3_0)))
 (let ((?x5740 (ite MW_S2_V3 S2_V3_!2470 ?x2271)))
 (let ((?x1495 (ite MW_S1_V3 S1_V3_!2475 ?x5740)))
 (let (($x2705 (not R_S2_V3)))
 (let (($x3036 (and (or (not R_S2_V1) (= ?x1962 ?x2223)) (or $x2705 (= ?x1495 ?x2271)) (or (not R_S2_V2) (= ?x6016 ?x286)) (or $x2519 (= ?x5071 ?x1000)) (or $x3726 (= ?x1844 ?x3149)))))
 (let (($x6005 (not $x3036)))
 (let (($x1305 (= S2_V3_!2480 S2_V3_!2459)))
 (let (($x5899 (and (or (not R_S2_V1) (= ?x1962 ?x4088)) (or $x2705 (= ?x1495 (ite MW_S2_V3 S2_V3_!2454 (ite MW_S1_V3 S1_V3_!2448 V3_0)))) (or (not R_S2_V2) (= ?x6016 (ite MW_S2_V2 S2_V2_!2455 ?x769))) (or $x2519 (= ?x5071 (ite MW_S2_V5 S2_V5_!2456 (ite MW_S1_V5 S1_V5_!2450 V5_0)))) (or $x3726 (= ?x1844 (ite MW_S2_V4 S2_V4_!2457 (ite MW_S1_V4 S1_V4_!2451 V4_0)))))))
 (let (($x723 (not $x5899)))
 (let (($x5237 (= S2_V3_!2470 S2_V3_!2459)))
 (let (($x2628 (and (or (not R_S2_V1) (= ?x2223 ?x4088)) (or $x2705 (= ?x2271 (ite MW_S2_V3 S2_V3_!2454 (ite MW_S1_V3 S1_V3_!2448 V3_0)))) (or (not R_S2_V2) (= ?x286 (ite MW_S2_V2 S2_V2_!2455 ?x769))) (or $x2519 (= ?x1000 (ite MW_S2_V5 S2_V5_!2456 (ite MW_S1_V5 S1_V5_!2450 V5_0)))) (or $x3726 (= ?x3149 (ite MW_S2_V4 S2_V4_!2457 (ite MW_S1_V4 S1_V4_!2451 V4_0)))))))
 (let (($x3137 (not $x2628)))
 (let (($x5076 (= S2_V3_!2454 S2_V3_!2480)))
 (let (($x2445 (and (or (not R_S2_V1) (= E1_!2452 ?x1962)) (or $x2705 (= (ite MW_S1_V3 S1_V3_!2448 V3_0) ?x1495)) (or (not R_S2_V2) (= ?x769 ?x6016)) (or $x2519 (= (ite MW_S1_V5 S1_V5_!2450 V5_0) ?x5071)) (or $x3726 (= (ite MW_S1_V4 S1_V4_!2451 V4_0) ?x1844)))))
 (let (($x5861 (not $x2445)))
 (let (($x1064 (= S2_V3_!2454 S2_V3_!2470)))
 (let (($x5963 (and (or (not R_S2_V1) (= E1_!2452 ?x2223)) (or $x2705 (= (ite MW_S1_V3 S1_V3_!2448 V3_0) ?x2271)) (or (not R_S2_V2) (= ?x769 ?x286)) (or $x2519 (= (ite MW_S1_V5 S1_V5_!2450 V5_0) ?x1000)) (or $x3726 (= (ite MW_S1_V4 S1_V4_!2451 V4_0) ?x3149)))))
 (let (($x141 (not $x5963)))
 (let (($x5807 (= S2_V3_!2454 S2_V3_!2459)))
 (let (($x3787 (or $x3726 (= (ite MW_S1_V4 S1_V4_!2451 V4_0) (ite MW_S2_V4 S2_V4_!2457 (ite MW_S1_V4 S1_V4_!2451 V4_0))))))
 (let (($x2302 (or $x2519 (= (ite MW_S1_V5 S1_V5_!2450 V5_0) (ite MW_S2_V5 S2_V5_!2456 (ite MW_S1_V5 S1_V5_!2450 V5_0))))))
 (let (($x2320 (or $x2705 (= (ite MW_S1_V3 S1_V3_!2448 V3_0) (ite MW_S2_V3 S2_V3_!2454 (ite MW_S1_V3 S1_V3_!2448 V3_0))))))
 (let (($x2770 (and (or (not R_S2_V1) (= E1_!2452 ?x4088)) $x2320 (or (not R_S2_V2) (= ?x769 (ite MW_S2_V2 S2_V2_!2455 ?x769))) $x2302 $x3787)))
 (let (($x1045 (not $x2770)))
 (let (($x4906 (= S2_V2_!2481 S2_V2_!2455)))
 (let (($x1960 (and (or (not R_S2_V1) (= ?x1962 E1_!2452)) (or $x2705 (= ?x1495 (ite MW_S1_V3 S1_V3_!2448 V3_0))) (or (not R_S2_V2) (= ?x6016 ?x769)) (or $x2519 (= ?x5071 (ite MW_S1_V5 S1_V5_!2450 V5_0))) (or $x3726 (= ?x1844 (ite MW_S1_V4 S1_V4_!2451 V4_0))))))
 (let (($x738 (not $x1960)))
 (let (($x2372 (= S2_V2_!2471 S2_V2_!2481)))
 (let (($x1286 (and (or (not R_S2_V1) (= ?x2223 ?x1962)) (or $x2705 (= ?x2271 ?x1495)) (or (not R_S2_V2) (= ?x286 ?x6016)) (or $x2519 (= ?x1000 ?x5071)) (or $x3726 (= ?x3149 ?x1844)))))
 (let (($x3858 (not $x1286)))
 (let (($x3567 (= S2_V2_!2471 S2_V2_!2455)))
 (let (($x5067 (and (or (not R_S2_V1) (= ?x2223 E1_!2452)) (or $x2705 (= ?x2271 (ite MW_S1_V3 S1_V3_!2448 V3_0))) (or (not R_S2_V2) (= ?x286 ?x769)) (or $x2519 (= ?x1000 (ite MW_S1_V5 S1_V5_!2450 V5_0))) (or $x3726 (= ?x3149 (ite MW_S1_V4 S1_V4_!2451 V4_0))))))
 (let (($x5363 (not $x5067)))
 (let (($x5764 (not R_S1_V4)))
 (let (($x2083 (or $x5764 (= ?x6067 V4_0))))
 (let (($x2008 (not R_S1_V5)))
 (let (($x3383 (or $x2008 (= ?x2376 V5_0))))
 (let (($x2049 (not R_S1_V2)))
 (let (($x2356 (or $x2049 (= ?x5705 V2_0))))
 (let (($x3483 (not R_S1_V3)))
 (let (($x4796 (or $x3483 (= ?x5740 V3_0))))
 (let (($x4212 (and (or (not R_S1_V1) (= ?x1568 (+ (- 1) E1_!2446))) $x4796 $x2356 $x3383 $x2083)))
 (let (($x1715 (not $x4212)))
 (let (($x4001 (= S1_V4_!2468 S1_V4_!2478)))
 (let (($x4557 (or $x5764 (= V4_0 ?x6067))))
 (let (($x3904 (or $x2008 (= V5_0 ?x2376))))
 (let (($x2041 (or $x2049 (= V2_0 ?x5705))))
 (let (($x3338 (or $x3483 (= V3_0 ?x5740))))
 (let (($x3172 (not (and (or (not R_S1_V1) (= E1_!2463 ?x144)) $x3338 $x2041 $x3904 $x4557))))
 (let (($x1686 (and (or (not R_S2_V1) (= ?x1708 (+ (- 1) ?x1962))) (or $x2705 (= (ite MW_S2_V3 S2_V3_!2454 (ite MW_S1_V3 S1_V3_!2448 V3_0)) ?x1495)) (or (not R_S2_V2) (= (ite MW_S2_V2 S2_V2_!2455 ?x769) ?x6016)) (or $x2519 (= (ite MW_S2_V5 S2_V5_!2456 (ite MW_S1_V5 S1_V5_!2450 V5_0)) ?x5071)) (or $x3726 (= (ite MW_S2_V4 S2_V4_!2457 (ite MW_S1_V4 S1_V4_!2451 V4_0)) ?x1844)))))
 (let (($x1914 (not $x1686)))
 (let (($x4238 (and (or (not R_S1_V1) (= ?x1568 (+ (- 1) E1_!2463))) $x4796 $x2356 $x3383 $x2083)))
 (let (($x2277 (not $x4238)))
 (let (($x1440 (and (or (not R_S2_V1) (= ?x1708 (+ (- 1) ?x2223))) (or $x2705 (= (ite MW_S2_V3 S2_V3_!2454 (ite MW_S1_V3 S1_V3_!2448 V3_0)) ?x2271)) (or (not R_S2_V2) (= (ite MW_S2_V2 S2_V2_!2455 ?x769) ?x286)) (or $x2519 (= (ite MW_S2_V5 S2_V5_!2456 (ite MW_S1_V5 S1_V5_!2450 V5_0)) ?x1000)) (or $x3726 (= (ite MW_S2_V4 S2_V4_!2457 (ite MW_S1_V4 S1_V4_!2451 V4_0)) ?x3149)))))
 (let (($x2205 (not $x1440)))
 (let (($x260 (= E1_!2463 E1_!2446)))
 (let (($x1016 (and (or (not R_E1_V2) (= ?x769 V2_0)) (or (not R_E1_V5) (= (ite MW_S1_V5 S1_V5_!2450 V5_0) V5_0)) (or (not R_E1_V4) (= (ite MW_S1_V4 S1_V4_!2451 V4_0) V4_0)))))
 (let (($x1113 (not $x1016)))
 (let (($x2981 (or $x3726 (= (ite MW_S2_V4 S2_V4_!2457 (ite MW_S1_V4 S1_V4_!2451 V4_0)) (ite MW_S1_V4 S1_V4_!2451 V4_0)))))
 (let (($x2466 (or $x2519 (= (ite MW_S2_V5 S2_V5_!2456 (ite MW_S1_V5 S1_V5_!2450 V5_0)) (ite MW_S1_V5 S1_V5_!2450 V5_0)))))
 (let (($x86 (or $x2705 (= (ite MW_S2_V3 S2_V3_!2454 (ite MW_S1_V3 S1_V3_!2448 V3_0)) (ite MW_S1_V3 S1_V3_!2448 V3_0)))))
 (let (($x582 (and (or (not R_S2_V1) (= ?x1708 (+ (- 1) E1_!2452))) $x86 (or (not R_S2_V2) (= (ite MW_S2_V2 S2_V2_!2455 ?x769) ?x769)) $x2466 $x2981)))
 (let (($x1074 (or (not (and (or (not R_S1_V1) (= E1_!2446 ?x144)) $x3338 $x2041 $x3904 $x4557)) (= S1_V1_!2447 S1_V1_!2474))))
 (let (($x1076 (and $x1074 (or (not (or (not R_S1_V1) $x260)) (= S1_V1_!2464 S1_V1_!2447)) (or $x3172 (= S1_V1_!2464 S1_V1_!2474)) (or $x141 (= S2_V5_!2456 S2_V5_!2472)) (or (not $x582) (= S2_V5_!2461 S2_V5_!2456)) (or $x2205 (= S2_V5_!2461 S2_V5_!2472)) (or $x738 (= S2_V5_!2482 S2_V5_!2456)) (or $x723 (= S2_V5_!2482 S2_V5_!2461)) (or $x6005 (= S2_V5_!2482 S2_V5_!2472)) (or (not (or (not R_S1_V1) $x260)) (= S1_V3_!2465 S1_V3_!2448)) (or $x3172 (= S1_V3_!2465 S1_V3_!2475)) (or $x1715 (= S1_V3_!2475 S1_V3_!2448)) (or (not (or (not R_S1_V1) $x260)) (= S1_V2_!2466 S1_V2_!2449)) (or $x1715 (= S1_V2_!2476 S1_V2_!2449)) (or $x2277 (= S1_V2_!2476 S1_V2_!2466)) (or $x1113 (= E1_!2452 E1_!2446)) (or $x1113 (= E1_!2452 E1_!2463)) $x260 (or $x1045 (= S2_V4_!2457 S2_V4_!2462)) (or $x141 (= S2_V4_!2457 S2_V4_!2473)) (or $x5861 (= S2_V4_!2457 S2_V4_!2483)) (or $x2205 (= S2_V4_!2462 S2_V4_!2473)) (or $x1914 (= S2_V4_!2462 S2_V4_!2483)) (or $x6005 (= S2_V4_!2483 S2_V4_!2473)) (or (not (or (not R_S1_V1) $x260)) (= S1_V5_!2467 S1_V5_!2450)) (or $x1715 (= S1_V5_!2477 S1_V5_!2450)) (or $x2277 (= S1_V5_!2477 S1_V5_!2467)) (or $x1045 (= S2_V1_!2453 S2_V1_!2458)) (or $x5861 (= S2_V1_!2453 S2_V1_!2479)) (or $x1914 (= S2_V1_!2458 S2_V1_!2479)) (or $x5363 (= S2_V1_!2469 S2_V1_!2453)) (or $x3137 (= S2_V1_!2469 S2_V1_!2458)) (or $x3858 (= S2_V1_!2469 S2_V1_!2479)) (or (not (or (not R_S1_V1) $x260)) (= S1_V4_!2468 S1_V4_!2451)) (or $x3172 $x4001) (or $x1715 (= S1_V4_!2478 S1_V4_!2451)) (or $x1045 (= S2_V2_!2455 S2_V2_!2460)) (or $x5363 $x3567) (or $x3137 (= S2_V2_!2471 S2_V2_!2460)) (or $x3858 $x2372) (or $x738 $x4906) (or $x723 (= S2_V2_!2481 S2_V2_!2460)) (or $x1045 $x5807) (or $x141 $x1064) (or $x5861 $x5076) (or $x3137 $x5237) (or $x723 $x1305) (or $x6005 $x126) (not MW_S1_V1) (not MW_S1_V2) (or (not MW_S1_V5) W_S1_V5) (or (not MW_S1_V4) W_S1_V4) (or (not MW_S2_V1) W_S2_V1) (or (not MW_S2_V3) W_S2_V3) (or (not MW_S2_V2) W_S2_V2) (or (not MW_S2_V5) W_S2_V5))))
 (or (not $x1076) (not $x2592) (and (= ?x5443 ?x2955) $x477 (= ?x2868 ?x3873) $x741 $x3759))))))))))))))))))))))))))))))))))))))))))))))))))))))))))))))))))))))))))))))))))))))))))))))
 )
 )
 )
 )
 )
 )
 )
 )
 )
 )
 )
 )
 )
 )
 )
 )
 )
 )
 )
 )
 )
 )
 )
 )
 )
 )
 )
 )
 )
 )
 )
 )
 )
 )
 )
 )
 )
 )
 )
 )
 )
 )
 )
 )
 )
 )
 )
 )
 )
 )
 )
 ))
 (let (($x5219 (or (and W_S2_V2 R_E1_V2) (and W_S2_V5 R_E1_V5) R_E1_V4)))
 (let (($x97 (= DISJ_W_S2_R_E1 (not $x5219))))
 (let (($x4154 (and W_S2_V5 R_S2_V5)))
 (let (($x3735 (and W_S2_V2 R_S2_V2)))
 (let (($x3063 (and W_S2_V3 R_S2_V3)))
 (let (($x1009 (and W_S2_V1 R_S2_V1)))
 (let (($x2385 (= DISJ_W_S2_R_S2 (not (or $x1009 $x3063 $x3735 $x4154 R_S2_V4)))))
 (let (($x5283 (and W_S2_V5 R_S1_V5)))
 (let (($x478 (and W_S2_V2 R_S1_V2)))
 (let (($x2735 (and W_S2_V3 R_S1_V3)))
 (let (($x3021 (and W_S2_V1 R_S1_V1)))
 (let (($x680 (= DISJ_W_S2_R_S1 (not (or $x3021 $x2735 $x478 $x5283 R_S1_V4)))))
 (let (($x190 (= DISJ_W_S1_W_S2 (not (or W_S2_V3 (and W_S1_V5 W_S2_V5) W_S1_V4)))))
 (let (($x6077 (not R_E1_V3)))
 (let (($x3231 (not (or R_S2_V3 (and W_S1_V5 R_S2_V5) (and W_S1_V4 R_S2_V4)))))
 (let (($x5753 (= DISJ_W_S1_R_S2 $x3231)))
 (let (($x3955 (not (or R_S1_V3 (and W_S1_V5 R_S1_V5) (and W_S1_V4 R_S1_V4)))))
 (let (($x2939 (= DISJ_W_S1_R_S1 $x3955)))
 (let (($x120 (not R_S1_V1)))
 (let (($x4320 (and $x120 DISJ_W_S1_R_S1)))
 (let (($x3370 (and $x4262 DISJ_W_S2_R_S1 DISJ_W_S1_R_S1)))
 (let (($x34 (or $x3370 $x1951 $x4320)))
 (let (($x3918 (not W_S1_V2)))
 (let (($x1890 (not W_S1_V1)))
 (let (($x786 (not R_E1_V1)))
 (let (($x1621 (and DISJ_W_S1_R_E1 $x786 $x1890 $x3918 $x34 W_S1_V3 W_S2_V4 $x2939 $x5753 $x6077 $x190 $x680 $x2385 $x97 $x3824 $x2388 $x2202)))
 (and $x1621 $x625 $x2625 $x3976 $x5077 $x2047 $x6057 $x1776 $x5838 $x5759 $x648 $x5001 $x1813 $x5938 $x3129 $x305 $x3980 $x988))))))))))))))))))))))))))))))))))))))))))))))))))))))
(check-sat)
